70
1 0 30
2 0 2
2 1 37
3 0 7
3 1 35
3 2 12
4 0 34
4 1 15
4 2 39
4 3 23
5 0 29
5 1 13
5 2 2
5 3 10
5 4 6
6 0 19
6 1 12
6 2 39
6 3 30
6 4 12
6 5 23
7 0 30
7 1 31
7 2 37
7 3 25
7 4 9
7 5 26
7 6 6
8 0 2
8 1 9
8 2 22
8 3 28
8 4 26
8 5 30
8 6 35
8 7 29
9 0 34
9 1 9
9 2 19
9 3 23
9 4 7
9 5 14
9 6 18
9 7 12
9 8 6
10 0 13
10 1 11
10 2 27
10 3 32
10 4 30
10 5 26
10 6 21
10 7 34
10 8 37
10 9 38
11 0 22
11 1 14
11 2 9
11 3 14
11 4 9
11 5 9
11 6 20
11 7 10
11 8 8
11 9 33
11 10 1
12 0 5
12 1 16
12 2 25
12 3 21
12 4 12
12 5 28
12 6 38
12 7 32
12 8 39
12 9 37
12 10 31
12 11 10
13 0 33
13 1 28
13 2 12
13 3 28
13 4 31
13 5 30
13 6 39
13 7 30
13 8 29
13 9 27
13 10 39
13 11 28
13 12 21
14 0 22
14 1 10
14 2 39
14 3 12
14 4 40
14 5 36
14 6 19
14 7 7
14 8 38
14 9 8
14 10 11
14 11 24
14 12 25
14 13 31
15 0 20
15 1 8
15 2 10
15 3 28
15 4 20
15 5 26
15 6 29
15 7 13
15 8 25
15 9 1
15 10 28
15 11 18
15 12 39
15 13 30
15 14 37
16 0 25
16 1 5
16 2 35
16 3 12
16 4 18
16 5 33
16 6 20
16 7 21
16 8 17
16 9 38
16 10 23
16 11 39
16 12 4
16 13 9
16 14 5
16 15 10
17 0 23
17 1 22
17 2 39
17 3 22
17 4 14
17 5 4
17 6 15
17 7 36
17 8 23
17 9 5
17 10 2
17 11 35
17 12 20
17 13 23
17 14 28
17 15 34
17 16 10
18 0 36
18 1 29
18 2 36
18 3 1
18 4 1
18 5 6
18 6 4
18 7 13
18 8 15
18 9 20
18 10 35
18 11 37
18 12 30
18 13 18
18 14 9
18 15 12
18 16 17
18 17 21
19 0 13
19 1 14
19 2 12
19 3 32
19 4 8
19 5 11
19 6 10
19 7 31
19 8 16
19 9 27
19 10 25
19 11 33
19 12 31
19 13 34
19 14 10
19 15 22
19 16 36
19 17 20
19 18 17
20 0 15
20 1 30
20 2 9
20 3 31
20 4 38
20 5 22
20 6 26
20 7 31
20 8 12
20 9 40
20 10 9
20 11 34
20 12 33
20 13 8
20 14 32
20 15 28
20 16 10
20 17 11
20 18 23
20 19 27
21 0 29
21 1 3
21 2 1
21 3 4
21 4 11
21 5 28
21 6 1
21 7 5
21 8 10
21 9 38
21 10 8
21 11 23
21 12 23
21 13 10
21 14 37
21 15 4
21 16 13
21 17 23
21 18 5
21 19 26
21 20 5
22 0 26
22 1 14
22 2 27
22 3 2
22 4 33
22 5 29
22 6 2
22 7 3
22 8 16
22 9 39
22 10 15
22 11 18
22 12 4
22 13 28
22 14 37
22 15 23
22 16 12
22 17 14
22 18 5
22 19 23
22 20 26
22 21 18
23 0 24
23 1 37
23 2 38
23 3 30
23 4 6
23 5 28
23 6 34
23 7 15
23 8 4
23 9 13
23 10 34
23 11 35
23 12 37
23 13 40
23 14 29
23 15 19
23 16 5
23 17 2
23 18 17
23 19 31
23 20 29
23 21 40
23 22 6
24 0 12
24 1 34
24 2 37
24 3 26
24 4 27
24 5 14
24 6 26
24 7 18
24 8 9
24 9 9
24 10 23
24 11 24
24 12 40
24 13 22
24 14 15
24 15 29
24 16 5
24 17 4
24 18 33
24 19 27
24 20 20
24 21 23
24 22 16
24 23 11
25 0 6
25 1 29
25 2 26
25 3 25
25 4 17
25 5 10
25 6 7
25 7 7
25 8 8
25 9 11
25 10 29
25 11 14
25 12 28
25 13 13
25 14 10
25 15 26
25 16 15
25 17 21
25 18 11
25 19 19
25 20 15
25 21 21
25 22 5
25 23 30
25 24 2
26 0 28
26 1 12
26 2 25
26 3 37
26 4 19
26 5 16
26 6 24
26 7 39
26 8 21
26 9 25
26 10 25
26 11 36
26 12 24
26 13 4
26 14 12
26 15 3
26 16 9
26 17 37
26 18 11
26 19 10
26 20 40
26 21 11
26 22 8
26 23 6
26 24 39
26 25 24
27 0 2
27 1 13
27 2 35
27 3 28
27 4 25
27 5 16
27 6 5
27 7 32
27 8 18
27 9 11
27 10 12
27 11 40
27 12 19
27 13 32
27 14 39
27 15 13
27 16 12
27 17 8
27 18 21
27 19 21
27 20 33
27 21 8
27 22 10
27 23 16
27 24 20
27 25 31
27 26 21
28 0 3
28 1 23
28 2 19
28 3 10
28 4 18
28 5 1
28 6 17
28 7 36
28 8 10
28 9 7
28 10 6
28 11 20
28 12 39
28 13 3
28 14 15
28 15 16
28 16 14
28 17 6
28 18 13
28 19 9
28 20 4
28 21 26
28 22 28
28 23 26
28 24 12
28 25 1
28 26 40
28 27 14
29 0 17
29 1 13
29 2 25
29 3 8
29 4 1
29 5 35
29 6 20
29 7 8
29 8 20
29 9 10
29 10 38
29 11 14
29 12 25
29 13 6
29 14 25
29 15 34
29 16 20
29 17 22
29 18 11
29 19 33
29 20 10
29 21 16
29 22 28
29 23 1
29 24 28
29 25 32
29 26 22
29 27 17
29 28 28
30 0 6
30 1 10
30 2 32
30 3 2
30 4 40
30 5 26
30 6 18
30 7 28
30 8 20
30 9 38
30 10 30
30 11 20
30 12 22
30 13 4
30 14 6
30 15 36
30 16 9
30 17 33
30 18 40
30 19 25
30 20 35
30 21 24
30 22 3
30 23 21
30 24 14
30 25 31
30 26 27
30 27 29
30 28 32
30 29 4
31 0 3
31 1 37
31 2 9
31 3 28
31 4 5
31 5 17
31 6 30
31 7 16
31 8 24
31 9 20
31 10 9
31 11 19
31 12 29
31 13 29
31 14 29
31 15 17
31 16 21
31 17 29
31 18 33
31 19 29
31 20 17
31 21 15
31 22 40
31 23 2
31 24 2
31 25 18
31 26 15
31 27 26
31 28 34
31 29 1
31 30 26
32 0 13
32 1 19
32 2 17
32 3 3
32 4 12
32 5 1
32 6 17
32 7 28
32 8 28
32 9 37
32 10 37
32 11 1
32 12 5
32 13 35
32 14 16
32 15 15
32 16 16
32 17 29
32 18 28
32 19 5
32 20 36
32 21 9
32 22 7
32 23 26
32 24 24
32 25 2
32 26 4
32 27 39
32 28 38
32 29 21
32 30 3
32 31 40
33 0 7
33 1 4
33 2 13
33 3 6
33 4 30
33 5 9
33 6 31
33 7 27
33 8 38
33 9 18
33 10 40
33 11 40
33 12 30
33 13 28
33 14 5
33 15 32
33 16 24
33 17 4
33 18 35
33 19 32
33 20 30
33 21 39
33 22 1
33 23 10
33 24 7
33 25 24
33 26 33
33 27 33
33 28 12
33 29 39
33 30 14
33 31 14
33 32 1
34 0 33
34 1 35
34 2 18
34 3 31
34 4 16
34 5 28
34 6 8
34 7 22
34 8 36
34 9 29
34 10 10
34 11 15
34 12 16
34 13 6
34 14 1
34 15 11
34 16 35
34 17 2
34 18 6
34 19 39
34 20 28
34 21 5
34 22 36
34 23 33
34 24 14
34 25 24
34 26 20
34 27 30
34 28 21
34 29 34
34 30 27
34 31 4
34 32 36
34 33 34
35 0 18
35 1 25
35 2 4
35 3 6
35 4 16
35 5 14
35 6 23
35 7 17
35 8 34
35 9 25
35 10 29
35 11 40
35 12 22
35 13 28
35 14 3
35 15 11
35 16 31
35 17 39
35 18 27
35 19 5
35 20 6
35 21 11
35 22 40
35 23 20
35 24 21
35 25 5
35 26 24
35 27 15
35 28 21
35 29 32
35 30 37
35 31 36
35 32 37
35 33 19
35 34 25
36 0 14
36 1 31
36 2 2
36 3 13
36 4 8
36 5 29
36 6 5
36 7 38
36 8 28
36 9 16
36 10 23
36 11 20
36 12 6
36 13 29
36 14 10
36 15 19
36 16 24
36 17 3
36 18 10
36 19 10
36 20 39
36 21 6
36 22 17
36 23 23
36 24 1
36 25 32
36 26 8
36 27 24
36 28 38
36 29 2
36 30 31
36 31 38
36 32 4
36 33 14
36 34 21
36 35 16
37 0 14
37 1 20
37 2 38
37 3 30
37 4 9
37 5 36
37 6 16
37 7 22
37 8 15
37 9 6
37 10 33
37 11 29
37 12 19
37 13 1
37 14 36
37 15 24
37 16 19
37 17 17
37 18 14
37 19 25
37 20 23
37 21 31
37 22 15
37 23 32
37 24 30
37 25 3
37 26 29
37 27 25
37 28 9
37 29 14
37 30 13
37 31 13
37 32 28
37 33 21
37 34 36
37 35 3
37 36 38
38 0 28
38 1 38
38 2 8
38 3 39
38 4 16
38 5 26
38 6 4
38 7 13
38 8 24
38 9 12
38 10 15
38 11 24
38 12 36
38 13 21
38 14 29
38 15 34
38 16 37
38 17 36
38 18 12
38 19 3
38 20 14
38 21 23
38 22 30
38 23 40
38 24 9
38 25 2
38 26 36
38 27 2
38 28 26
38 29 5
38 30 6
38 31 1
38 32 23
38 33 26
38 34 36
38 35 36
38 36 35
38 37 40
39 0 11
39 1 37
39 2 23
39 3 27
39 4 22
39 5 29
39 6 30
39 7 4
39 8 20
39 9 6
39 10 33
39 11 5
39 12 35
39 13 12
39 14 10
39 15 9
39 16 29
39 17 20
39 18 22
39 19 30
39 20 1
39 21 26
39 22 8
39 23 11
39 24 10
39 25 32
39 26 15
39 27 39
39 28 15
39 29 12
39 30 34
39 31 33
39 32 29
39 33 22
39 34 30
39 35 39
39 36 28
39 37 10
39 38 18
40 0 38
40 1 7
40 2 27
40 3 5
40 4 31
40 5 1
40 6 28
40 7 2
40 8 15
40 9 11
40 10 4
40 11 34
40 12 13
40 13 26
40 14 18
40 15 37
40 16 5
40 17 28
40 18 7
40 19 1
40 20 34
40 21 27
40 22 37
40 23 21
40 24 12
40 25 25
40 26 19
40 27 38
40 28 7
40 29 35
40 30 4
40 31 37
40 32 10
40 33 17
40 34 39
40 35 16
40 36 4
40 37 2
40 38 37
40 39 31
41 0 7
41 1 15
41 2 29
41 3 25
41 4 38
41 5 27
41 6 26
41 7 32
41 8 35
41 9 31
41 10 4
41 11 10
41 12 4
41 13 1
41 14 25
41 15 33
41 16 3
41 17 36
41 18 9
41 19 32
41 20 30
41 21 20
41 22 3
41 23 11
41 24 33
41 25 11
41 26 8
41 27 2
41 28 22
41 29 32
41 30 15
41 31 9
41 32 17
41 33 2
41 34 19
41 35 7
41 36 19
41 37 33
41 38 2
41 39 1
41 40 21
42 0 23
42 1 37
42 2 25
42 3 32
42 4 27
42 5 29
42 6 13
42 7 32
42 8 39
42 9 8
42 10 29
42 11 40
42 12 15
42 13 14
42 14 28
42 15 22
42 16 5
42 17 28
42 18 11
42 19 37
42 20 28
42 21 23
42 22 30
42 23 7
42 24 15
42 25 32
42 26 22
42 27 33
42 28 25
42 29 19
42 30 35
42 31 16
42 32 37
42 33 30
42 34 16
42 35 28
42 36 36
42 37 14
42 38 7
42 39 16
42 40 32
42 41 34
43 0 35
43 1 24
43 2 18
43 3 29
43 4 20
43 5 29
43 6 20
43 7 11
43 8 37
43 9 1
43 10 22
43 11 25
43 12 12
43 13 38
43 14 14
43 15 2
43 16 17
43 17 16
43 18 7
43 19 6
43 20 24
43 21 18
43 22 12
43 23 38
43 24 18
43 25 25
43 26 34
43 27 37
43 28 2
43 29 27
43 30 25
43 31 11
43 32 37
43 33 32
43 34 31
43 35 7
43 36 38
43 37 21
43 38 3
43 39 27
43 40 14
43 41 35
43 42 24
44 0 26
44 1 8
44 2 11
44 3 32
44 4 36
44 5 39
44 6 20
44 7 10
44 8 4
44 9 16
44 10 27
44 11 31
44 12 20
44 13 7
44 14 38
44 15 19
44 16 22
44 17 38
44 18 21
44 19 3
44 20 21
44 21 3
44 22 40
44 23 19
44 24 7
44 25 4
44 26 17
44 27 20
44 28 39
44 29 18
44 30 8
44 31 9
44 32 4
44 33 4
44 34 3
44 35 11
44 36 26
44 37 37
44 38 29
44 39 1
44 40 25
44 41 10
44 42 22
44 43 34
45 0 18
45 1 17
45 2 34
45 3 16
45 4 16
45 5 7
45 6 16
45 7 34
45 8 40
45 9 38
45 10 6
45 11 22
45 12 6
45 13 34
45 14 22
45 15 14
45 16 39
45 17 18
45 18 34
45 19 2
45 20 8
45 21 38
45 22 40
45 23 39
45 24 27
45 25 9
45 26 15
45 27 3
45 28 24
45 29 36
45 30 19
45 31 15
45 32 8
45 33 13
45 34 37
45 35 36
45 36 6
45 37 10
45 38 32
45 39 35
45 40 37
45 41 18
45 42 39
45 43 35
45 44 34
46 0 30
46 1 4
46 2 2
46 3 25
46 4 37
46 5 6
46 6 28
46 7 15
46 8 32
46 9 36
46 10 25
46 11 35
46 12 9
46 13 35
46 14 11
46 15 40
46 16 27
46 17 4
46 18 22
46 19 2
46 20 11
46 21 16
46 22 30
46 23 13
46 24 29
46 25 22
46 26 39
46 27 28
46 28 27
46 29 26
46 30 1
46 31 31
46 32 34
46 33 31
46 34 28
46 35 16
46 36 23
46 37 15
46 38 31
46 39 28
46 40 31
46 41 10
46 42 19
46 43 40
46 44 12
46 45 5
47 0 27
47 1 9
47 2 16
47 3 31
47 4 27
47 5 23
47 6 32
47 7 26
47 8 4
47 9 33
47 10 10
47 11 13
47 12 37
47 13 14
47 14 36
47 15 40
47 16 11
47 17 23
47 18 32
47 19 8
47 20 2
47 21 30
47 22 10
47 23 4
47 24 32
47 25 7
47 26 38
47 27 20
47 28 1
47 29 8
47 30 40
47 31 39
47 32 17
47 33 21
47 34 17
47 35 37
47 36 6
47 37 37
47 38 21
47 39 22
47 40 19
47 41 8
47 42 14
47 43 38
47 44 12
47 45 36
47 46 15
48 0 39
48 1 16
48 2 19
48 3 22
48 4 9
48 5 18
48 6 19
48 7 29
48 8 25
48 9 39
48 10 10
48 11 10
48 12 19
48 13 7
48 14 8
48 15 34
48 16 25
48 17 27
48 18 16
48 19 15
48 20 21
48 21 17
48 22 14
48 23 37
48 24 37
48 25 24
48 26 3
48 27 14
48 28 35
48 29 17
48 30 30
48 31 13
48 32 3
48 33 26
48 34 25
48 35 17
48 36 19
48 37 25
48 38 6
48 39 31
48 40 16
48 41 12
48 42 8
48 43 16
48 44 33
48 45 34
48 46 38
48 47 8
49 0 39
49 1 21
49 2 2
49 3 6
49 4 16
49 5 32
49 6 25
49 7 18
49 8 38
49 9 15
49 10 28
49 11 13
49 12 24
49 13 8
49 14 6
49 15 31
49 16 29
49 17 26
49 18 22
49 19 35
49 20 27
49 21 26
49 22 19
49 23 37
49 24 16
49 25 11
49 26 18
49 27 32
49 28 17
49 29 8
49 30 35
49 31 9
49 32 3
49 33 34
49 34 28
49 35 32
49 36 30
49 37 16
49 38 11
49 39 11
49 40 21
49 41 29
49 42 7
49 43 39
49 44 38
49 45 4
49 46 23
49 47 21
49 48 29
50 0 11
50 1 24
50 2 20
50 3 3
50 4 37
50 5 31
50 6 19
50 7 22
50 8 39
50 9 6
50 10 18
50 11 32
50 12 11
50 13 13
50 14 33
50 15 20
50 16 11
50 17 5
50 18 17
50 19 19
50 20 1
50 21 9
50 22 10
50 23 27
50 24 20
50 25 37
50 26 21
50 27 26
50 28 2
50 29 5
50 30 40
50 31 22
50 32 25
50 33 11
50 34 36
50 35 32
50 36 38
50 37 13
50 38 12
50 39 4
50 40 32
50 41 17
50 42 31
50 43 17
50 44 40
50 45 1
50 46 18
50 47 33
50 48 1
50 49 36
51 0 6
51 1 24
51 2 6
51 3 1
51 4 31
51 5 1
51 6 18
51 7 6
51 8 28
51 9 27
51 10 10
51 11 37
51 12 8
51 13 37
51 14 33
51 15 25
51 16 26
51 17 14
51 18 14
51 19 33
51 20 34
51 21 5
51 22 21
51 23 34
51 24 28
51 25 12
51 26 6
51 27 14
51 28 5
51 29 39
51 30 36
51 31 38
51 32 35
51 33 27
51 34 30
51 35 12
51 36 31
51 37 6
51 38 3
51 39 7
51 40 19
51 41 22
51 42 9
51 43 23
51 44 24
51 45 3
51 46 40
51 47 30
51 48 2
51 49 39
51 50 27
52 0 30
52 1 40
52 2 32
52 3 4
52 4 33
52 5 15
52 6 7
52 7 9
52 8 37
52 9 10
52 10 25
52 11 4
52 12 35
52 13 14
52 14 10
52 15 9
52 16 9
52 17 24
52 18 38
52 19 21
52 20 34
52 21 8
52 22 36
52 23 25
52 24 20
52 25 1
52 26 8
52 27 8
52 28 5
52 29 9
52 30 3
52 31 16
52 32 31
52 33 39
52 34 36
52 35 24
52 36 3
52 37 7
52 38 4
52 39 9
52 40 35
52 41 21
52 42 24
52 43 9
52 44 15
52 45 1
52 46 4
52 47 13
52 48 34
52 49 32
52 50 6
52 51 21
53 0 1
53 1 11
53 2 32
53 3 6
53 4 15
53 5 23
53 6 37
53 7 10
53 8 2
53 9 36
53 10 22
53 11 31
53 12 7
53 13 9
53 14 7
53 15 7
53 16 36
53 17 24
53 18 32
53 19 32
53 20 12
53 21 39
53 22 13
53 23 3
53 24 28
53 25 36
53 26 37
53 27 40
53 28 22
53 29 10
53 30 26
53 31 13
53 32 36
53 33 10
53 34 8
53 35 20
53 36 24
53 37 23
53 38 24
53 39 29
53 40 40
53 41 14
53 42 11
53 43 29
53 44 10
53 45 17
53 46 30
53 47 35
53 48 29
53 49 8
53 50 40
53 51 38
53 52 26
54 0 25
54 1 10
54 2 26
54 3 37
54 4 19
54 5 17
54 6 17
54 7 15
54 8 33
54 9 36
54 10 20
54 11 17
54 12 26
54 13 9
54 14 10
54 15 21
54 16 14
54 17 31
54 18 30
54 19 5
54 20 12
54 21 21
54 22 33
54 23 28
54 24 10
54 25 21
54 26 22
54 27 16
54 28 17
54 29 37
54 30 40
54 31 7
54 32 27
54 33 6
54 34 40
54 35 23
54 36 27
54 37 38
54 38 31
54 39 23
54 40 21
54 41 15
54 42 39
54 43 28
54 44 33
54 45 31
54 46 29
54 47 4
54 48 13
54 49 25
54 50 1
54 51 22
54 52 33
54 53 12
55 0 5
55 1 5
55 2 15
55 3 26
55 4 35
55 5 26
55 6 21
55 7 27
55 8 22
55 9 10
55 10 8
55 11 26
55 12 7
55 13 32
55 14 31
55 15 33
55 16 7
55 17 34
55 18 8
55 19 37
55 20 35
55 21 20
55 22 37
55 23 30
55 24 40
55 25 2
55 26 31
55 27 11
55 28 26
55 29 35
55 30 12
55 31 33
55 32 4
55 33 10
55 34 15
55 35 33
55 36 5
55 37 22
55 38 23
55 39 24
55 40 11
55 41 35
55 42 5
55 43 22
55 44 2
55 45 37
55 46 6
55 47 29
55 48 28
55 49 35
55 50 22
55 51 10
55 52 14
55 53 19
55 54 35
56 0 23
56 1 26
56 2 20
56 3 31
56 4 12
56 5 2
56 6 20
56 7 10
56 8 35
56 9 22
56 10 21
56 11 22
56 12 31
56 13 6
56 14 32
56 15 9
56 16 30
56 17 40
56 18 2
56 19 6
56 20 10
56 21 15
56 22 33
56 23 18
56 24 5
56 25 5
56 26 28
56 27 2
56 28 8
56 29 26
56 30 30
56 31 4
56 32 22
56 33 34
56 34 6
56 35 4
56 36 3
56 37 38
56 38 4
56 39 11
56 40 8
56 41 19
56 42 16
56 43 38
56 44 25
56 45 12
56 46 9
56 47 28
56 48 10
56 49 16
56 50 6
56 51 27
56 52 7
56 53 19
56 54 11
56 55 9
57 0 27
57 1 37
57 2 2
57 3 30
57 4 12
57 5 38
57 6 7
57 7 24
57 8 10
57 9 4
57 10 35
57 11 9
57 12 8
57 13 5
57 14 38
57 15 38
57 16 38
57 17 3
57 18 31
57 19 8
57 20 13
57 21 9
57 22 5
57 23 29
57 24 31
57 25 4
57 26 15
57 27 26
57 28 8
57 29 16
57 30 19
57 31 2
57 32 26
57 33 6
57 34 34
57 35 12
57 36 3
57 37 7
57 38 36
57 39 29
57 40 38
57 41 12
57 42 2
57 43 2
57 44 34
57 45 19
57 46 18
57 47 31
57 48 5
57 49 20
57 50 17
57 51 16
57 52 4
57 53 38
57 54 29
57 55 13
57 56 34
58 0 17
58 1 3
58 2 18
58 3 39
58 4 24
58 5 14
58 6 12
58 7 13
58 8 15
58 9 23
58 10 31
58 11 17
58 12 1
58 13 23
58 14 8
58 15 3
58 16 19
58 17 37
58 18 39
58 19 12
58 20 33
58 21 17
58 22 39
58 23 35
58 24 37
58 25 16
58 26 5
58 27 30
58 28 22
58 29 24
58 30 34
58 31 13
58 32 15
58 33 12
58 34 38
58 35 18
58 36 40
58 37 39
58 38 4
58 39 15
58 40 22
58 41 27
58 42 27
58 43 8
58 44 35
58 45 39
58 46 39
58 47 20
58 48 35
58 49 5
58 50 28
58 51 10
58 52 36
58 53 24
58 54 23
58 55 40
58 56 14
58 57 16
59 0 9
59 1 5
59 2 14
59 3 40
59 4 33
59 5 31
59 6 24
59 7 2
59 8 9
59 9 7
59 10 32
59 11 40
59 12 10
59 13 11
59 14 38
59 15 38
59 16 28
59 17 15
59 18 22
59 19 10
59 20 3
59 21 3
59 22 27
59 23 38
59 24 9
59 25 8
59 26 6
59 27 36
59 28 5
59 29 11
59 30 21
59 31 8
59 32 30
59 33 22
59 34 21
59 35 12
59 36 32
59 37 34
59 38 7
59 39 32
59 40 23
59 41 30
59 42 19
59 43 4
59 44 4
59 45 31
59 46 2
59 47 1
59 48 29
59 49 27
59 50 17
59 51 14
59 52 26
59 53 37
59 54 4
59 55 34
59 56 26
59 57 38
59 58 29
60 0 40
60 1 29
60 2 38
60 3 34
60 4 3
60 5 36
60 6 7
60 7 11
60 8 17
60 9 16
60 10 31
60 11 22
60 12 34
60 13 16
60 14 9
60 15 24
60 16 11
60 17 18
60 18 7
60 19 17
60 20 27
60 21 31
60 22 33
60 23 7
60 24 21
60 25 28
60 26 38
60 27 5
60 28 32
60 29 6
60 30 37
60 31 14
60 32 27
60 33 37
60 34 3
60 35 14
60 36 7
60 37 37
60 38 15
60 39 22
60 40 10
60 41 4
60 42 29
60 43 21
60 44 29
60 45 5
60 46 20
60 47 31
60 48 14
60 49 22
60 50 36
60 51 28
60 52 11
60 53 32
60 54 40
60 55 30
60 56 24
60 57 7
60 58 5
60 59 21
61 0 30
61 1 35
61 2 26
61 3 11
61 4 6
61 5 21
61 6 39
61 7 20
61 8 38
61 9 40
61 10 11
61 11 40
61 12 39
61 13 7
61 14 6
61 15 4
61 16 24
61 17 4
61 18 32
61 19 22
61 20 14
61 21 33
61 22 29
61 23 18
61 24 8
61 25 26
61 26 11
61 27 11
61 28 21
61 29 27
61 30 3
61 31 30
61 32 39
61 33 32
61 34 2
61 35 4
61 36 23
61 37 25
61 38 23
61 39 4
61 40 21
61 41 6
61 42 1
61 43 37
61 44 23
61 45 26
61 46 12
61 47 13
61 48 28
61 49 19
61 50 38
61 51 14
61 52 36
61 53 38
61 54 15
61 55 1
61 56 9
61 57 1
61 58 40
61 59 38
61 60 25
62 0 23
62 1 10
62 2 30
62 3 21
62 4 29
62 5 40
62 6 30
62 7 15
62 8 19
62 9 36
62 10 14
62 11 8
62 12 7
62 13 8
62 14 6
62 15 7
62 16 4
62 17 23
62 18 13
62 19 29
62 20 5
62 21 36
62 22 12
62 23 24
62 24 28
62 25 29
62 26 24
62 27 37
62 28 10
62 29 7
62 30 38
62 31 6
62 32 29
62 33 22
62 34 1
62 35 23
62 36 6
62 37 24
62 38 13
62 39 29
62 40 12
62 41 14
62 42 24
62 43 29
62 44 19
62 45 15
62 46 37
62 47 17
62 48 29
62 49 35
62 50 7
62 51 10
62 52 24
62 53 3
62 54 11
62 55 21
62 56 31
62 57 16
62 58 36
62 59 5
62 60 14
62 61 36
63 0 13
63 1 24
63 2 20
63 3 23
63 4 15
63 5 36
63 6 4
63 7 28
63 8 4
63 9 37
63 10 13
63 11 12
63 12 10
63 13 31
63 14 2
63 15 12
63 16 35
63 17 1
63 18 1
63 19 7
63 20 27
63 21 3
63 22 38
63 23 30
63 24 25
63 25 22
63 26 36
63 27 2
63 28 12
63 29 10
63 30 31
63 31 31
63 32 38
63 33 5
63 34 25
63 35 6
63 36 37
63 37 10
63 38 5
63 39 7
63 40 13
63 41 30
63 42 26
63 43 12
63 44 31
63 45 16
63 46 17
63 47 20
63 48 34
63 49 39
63 50 38
63 51 28
63 52 19
63 53 29
63 54 28
63 55 22
63 56 9
63 57 29
63 58 21
63 59 31
63 60 24
63 61 31
63 62 20
64 0 12
64 1 15
64 2 40
64 3 7
64 4 25
64 5 40
64 6 29
64 7 9
64 8 17
64 9 7
64 10 38
64 11 4
64 12 26
64 13 22
64 14 14
64 15 16
64 16 21
64 17 32
64 18 4
64 19 25
64 20 22
64 21 31
64 22 32
64 23 28
64 24 32
64 25 13
64 26 33
64 27 32
64 28 23
64 29 38
64 30 22
64 31 30
64 32 10
64 33 32
64 34 37
64 35 14
64 36 14
64 37 39
64 38 11
64 39 24
64 40 32
64 41 29
64 42 25
64 43 8
64 44 26
64 45 30
64 46 19
64 47 6
64 48 22
64 49 34
64 50 17
64 51 13
64 52 37
64 53 15
64 54 14
64 55 5
64 56 36
64 57 17
64 58 25
64 59 24
64 60 31
64 61 32
64 62 14
64 63 2
65 0 7
65 1 35
65 2 23
65 3 20
65 4 3
65 5 10
65 6 40
65 7 31
65 8 37
65 9 27
65 10 22
65 11 1
65 12 7
65 13 12
65 14 11
65 15 39
65 16 21
65 17 40
65 18 21
65 19 18
65 20 28
65 21 21
65 22 16
65 23 9
65 24 31
65 25 11
65 26 12
65 27 9
65 28 13
65 29 30
65 30 6
65 31 40
65 32 27
65 33 28
65 34 33
65 35 39
65 36 12
65 37 7
65 38 22
65 39 13
65 40 4
65 41 19
65 42 30
65 43 6
65 44 37
65 45 31
65 46 3
65 47 13
65 48 33
65 49 5
65 50 1
65 51 10
65 52 27
65 53 33
65 54 7
65 55 16
65 56 13
65 57 28
65 58 39
65 59 19
65 60 13
65 61 22
65 62 24
65 63 13
65 64 37
66 0 28
66 1 14
66 2 39
66 3 32
66 4 33
66 5 28
66 6 35
66 7 34
66 8 2
66 9 29
66 10 22
66 11 39
66 12 10
66 13 26
66 14 25
66 15 20
66 16 37
66 17 37
66 18 36
66 19 4
66 20 7
66 21 29
66 22 40
66 23 27
66 24 21
66 25 39
66 26 19
66 27 14
66 28 35
66 29 16
66 30 25
66 31 39
66 32 22
66 33 36
66 34 24
66 35 35
66 36 3
66 37 22
66 38 40
66 39 5
66 40 34
66 41 39
66 42 20
66 43 40
66 44 11
66 45 21
66 46 8
66 47 31
66 48 31
66 49 2
66 50 16
66 51 40
66 52 22
66 53 5
66 54 11
66 55 32
66 56 19
66 57 12
66 58 24
66 59 35
66 60 14
66 61 28
66 62 19
66 63 10
66 64 1
66 65 27
67 0 26
67 1 35
67 2 15
67 3 2
67 4 3
67 5 37
67 6 26
67 7 14
67 8 17
67 9 36
67 10 29
67 11 13
67 12 8
67 13 15
67 14 24
67 15 19
67 16 13
67 17 26
67 18 5
67 19 40
67 20 9
67 21 30
67 22 4
67 23 40
67 24 15
67 25 30
67 26 15
67 27 22
67 28 3
67 29 37
67 30 39
67 31 38
67 32 23
67 33 24
67 34 29
67 35 14
67 36 9
67 37 19
67 38 21
67 39 20
67 40 37
67 41 1
67 42 30
67 43 15
67 44 21
67 45 38
67 46 36
67 47 35
67 48 36
67 49 36
67 50 40
67 51 37
67 52 24
67 53 5
67 54 28
67 55 26
67 56 15
67 57 20
67 58 2
67 59 11
67 60 18
67 61 13
67 62 7
67 63 7
67 64 12
67 65 24
67 66 24
68 0 10
68 1 12
68 2 34
68 3 26
68 4 10
68 5 24
68 6 28
68 7 28
68 8 34
68 9 26
68 10 24
68 11 18
68 12 37
68 13 32
68 14 28
68 15 7
68 16 31
68 17 29
68 18 19
68 19 6
68 20 28
68 21 8
68 22 30
68 23 6
68 24 35
68 25 3
68 26 11
68 27 12
68 28 25
68 29 10
68 30 28
68 31 30
68 32 24
68 33 25
68 34 9
68 35 16
68 36 39
68 37 37
68 38 20
68 39 37
68 40 17
68 41 25
68 42 2
68 43 20
68 44 32
68 45 7
68 46 13
68 47 17
68 48 8
68 49 18
68 50 30
68 51 38
68 52 34
68 53 10
68 54 30
68 55 37
68 56 18
68 57 40
68 58 24
68 59 29
68 60 28
68 61 8
68 62 16
68 63 9
68 64 27
68 65 40
68 66 14
68 67 1
69 0 5
69 1 10
69 2 34
69 3 33
69 4 20
69 5 38
69 6 13
69 7 15
69 8 19
69 9 16
69 10 1
69 11 11
69 12 39
69 13 2
69 14 24
69 15 38
69 16 21
69 17 30
69 18 24
69 19 2
69 20 24
69 21 26
69 22 21
69 23 23
69 24 14
69 25 6
69 26 6
69 27 9
69 28 24
69 29 24
69 30 39
69 31 31
69 32 19
69 33 26
69 34 10
69 35 25
69 36 27
69 37 17
69 38 36
69 39 24
69 40 9
69 41 3
69 42 7
69 43 34
69 44 16
69 45 4
69 46 37
69 47 16
69 48 12
69 49 23
69 50 33
69 51 23
69 52 34
69 53 29
69 54 40
69 55 18
69 56 19
69 57 12
69 58 37
69 59 40
69 60 30
69 61 37
69 62 6
69 63 25
69 64 26
69 65 33
69 66 29
69 67 15
69 68 9
